49646 164 27926 146484 54482 0.96
49552 173 31316 163840 55856 0.94
49594 170 32275 168628 56316 0.98
49632 161 26276 137543 55036 0.98
49826 168 28462 148867 54964 0.98
49258 180 37963 198322 55584 0.98
49996 142 19827 103863 55948 0.98
49392 159 29003 152596 55250 0.96
49784 158 36324 189591 55914 0.98
49634 149 27253 142704 55456 0.8
